17	4
16	15	17	16	
0	0	0	0	0	3	2	3	4	
8	9	4	10	10	1	7	
7	5	7	2	7	3	5	10	17	
9	5	9	3	10	3	5	6	17	
10	9	5	10	3	1	8	
75	1	10	7	2	3	9	11	17	
225	1	1	7	3	3	12	15	17	
175	1	7	4	4	2	17	17	
200	8	1	5	7	2	13	17	
200	9	1	9	5	3	12	15	17	
50	5	7	6	7	3	14	16	17	
100	6	4	8	3	2	17	17	
7	8	3	7	7	2	14	17	
4	8	4	8	2	1	17	
4	3	5	9	1	2	17	17	
10	3	8	1	3	3	17	17	17	
0	0	0	0	0	0	
